
Gurobi 11.0.3 (linux64) logging started Fri Nov 22 00:18:33 2024

Set parameter LogFile to value "/home/yihong/Coding/OR_SUC/SUC_results_bigM100000_thread4/case24_ieee_rts_theta0.5_epsilon0.05_gurobi_seed750000_num_gen100_N_WDR100_load_scaling_factor1_exact_T20quadra_cost.txt"
Set parameter TimeLimit to value 3600
Gurobi Optimizer version 11.0.3 build v11.0.3rc0 (linux64 - "Ubuntu 20.04.6 LTS")

CPU model: AMD EPYC 7532 32-Core Processor, instruction set [SSE2|AVX|AVX2]
Thread count: 64 physical cores, 128 logical processors, using up to 4 threads

Optimize a model with 47983 rows, 25001 columns and 1104482 nonzeros
Model fingerprint: 0xd240ff2d
Model has 2000 quadratic constraints
Variable types: 22901 continuous, 2100 integer (2100 binary)
Coefficient statistics:
  Matrix range     [3e-04, 1e+05]
  QMatrix range    [2e-03, 8e-03]
  QLMatrix range   [1e-01, 6e+01]
  Objective range  [1e+00, 1e+00]
  Bounds range     [1e+00, 1e+00]
  RHS range        [1e+00, 1e+05]
Presolve removed 39155 rows and 10587 columns
Presolve time: 0.35s
Presolved: 8828 rows, 14414 columns, 50347 nonzeros
Presolved model has 2000 quadratic constraint(s)
Variable types: 12324 continuous, 2090 integer (2090 binary)

Root relaxation: objective 3.931169e+04, 6975 iterations, 0.23 seconds (0.25 work units)

    Nodes    |    Current Node    |     Objective Bounds      |     Work
 Expl Unexpl |  Obj  Depth IntInf | Incumbent    BestBd   Gap | It/Node Time

     0     0 39311.6921    0   33          - 39311.6921      -     -    0s
     0     0 315769.129    0  648          - 315769.129      -     -    1s
     0     0 322130.559    0  622          - 322130.559      -     -    1s
     0     0 544114.917    0  593          - 544114.917      -     -    1s
     0     0 544403.518    0  361          - 544403.518      -     -    1s
     0     0 544540.511    0  250          - 544540.511      -     -    1s
     0     0 544552.552    0  250          - 544552.552      -     -    1s
     0     0 544552.552    0  250          - 544552.552      -     -    1s
     0     0 544554.043    0  250          - 544554.043      -     -    1s
     0     2 544554.043    0  250          - 544554.043      -     -    2s
H  399   273                    544832.28346 544580.424  0.05%  19.1    5s
*  399   273             130    544832.28346 544580.424  0.05%  19.1    5s

Cutting planes:
  Gomory: 7
  Implied bound: 262
  MIR: 94
  Flow cover: 161
  RLT: 20
  Relax-and-lift: 24

Explored 460 nodes (27176 simplex iterations) in 5.50 seconds (7.03 work units)
Thread count was 4 (of 128 available processors)

Solution count 2: 544832 544832 

Optimal solution found (tolerance 1.00e-03)
Warning: max constraint violation (2.3171e-07) exceeds tolerance
Best objective 5.448322834623e+05, best bound 5.445804235321e+05, gap 0.0462%
